50
1000
396
394
388
381
380
378
377
377
372
363
359
358
358
358
353
352
352
350
350
349
346
340
337
333
332
328
326
323
319
317
313
312
309
298
297
295
295
294
286
285
285
282
281
280
278
278
276
275
274
271
